109 300 70 99 75 63 100 92 95 84 76 91 50 97 73 91 94 50 59 87 90 67 58 55 93 99 86 52 59 76 79 73 84 100 71 58 87 96 75 81 53 50 96 78 97 93 68 91 67 52 51 56 69 60 86 61 83 72 88 92 72 91 89 56 64 84 89 75 53 63 80 56 64 75 58 60 68 77 75 85 79 77 66 72 61 51 57 94 98 69 59 95 59 72 50 99 55 63 73 59 77 53 90 91 78 99 75 70 100 50 80 